(set-info :source |
 Generated by Alive 0.1
 More info in N. P. Lopes, D. Menendez, S. Nagarakatte, J. Regehr.
 Provably Correct Peephole Optimizations with Alive. In PLDI'15.
|)

(set-info :status unknown)
(declare-fun %y () (_ BitVec 38))
(declare-fun %x () (_ BitVec 38))
(assert
 (let (($x311286 (and (distinct (bvxor (bvashr (bvxor %x (_ bv274877906943 38)) %y) (_ bv274877906943 38)) (bvashr %x %y)) true)))
 (let (($x359465 (bvult %y (_ bv38 38))))
 (and $x359465 $x311286))))
(check-sat)
